
Welcome to IBM(R) ILOG(R) CPLEX(R) Interactive Optimizer 22.1.1.0
  with Simplex, Mixed Integer & Barrier Optimizers
5725-A06 5725-A29 5724-Y48 5724-Y49 5724-Y54 5724-Y55 5655-Y21
Copyright IBM Corp. 1988, 2022.  All Rights Reserved.

Type 'help' for a list of available commands.
Type 'help' followed by a command name for more
information on commands.

CPLEX> Selected objective sense:  MINIMIZE
Selected objective  name:  00000000
Selected RHS        name:  RHS1
Selected bound      name:  BOUND
Problem 'ee.mps' read.
Read time = 0.03 sec. (3.14 ticks)
CPLEX> New value for time limit in seconds: 7200
CPLEX> New value for parallel optimization mode: -1
CPLEX> New value for default parallel thread count: 40
CPLEX> New value for mixed integer optimality gap tolerance: 1e-13
CPLEX> Version identifier: 22.1.1.0 | 2022-11-28 | 9160aff4d
CPXPARAM_Threads                                 40
CPXPARAM_Parallel                                -1
CPXPARAM_TimeLimit                               7200
CPXPARAM_MIP_Tolerances_MIPGap                   1e-13
Found incumbent of value 0.000000 after 0.00 sec. (0.31 ticks)
Tried aggregator 2 times.
MIP Presolve eliminated 180 rows and 2745 columns.
MIP Presolve modified 5862 coefficients.
Aggregator did 713 substitutions.
Reduced MIP has 3623 rows, 7739 columns, and 28643 nonzeros.
Reduced MIP has 7739 binaries, 0 generals, 0 SOSs, and 0 indicators.
Presolve time = 0.07 sec. (68.57 ticks)
Probing time = 0.03 sec. (5.29 ticks)
Tried aggregator 1 time.
Detecting symmetries...
Reduced MIP has 3623 rows, 7739 columns, and 28643 nonzeros.
Reduced MIP has 7739 binaries, 0 generals, 0 SOSs, and 0 indicators.
Presolve time = 0.02 sec. (21.86 ticks)
Probing time = 0.02 sec. (5.10 ticks)
Clique table members: 18551.
MIP emphasis: balance optimality and feasibility.
MIP search method: dynamic search.
Parallel mode: opportunistic, using up to 40 threads.
Root relaxation solution time = 0.09 sec. (63.84 ticks)

        Nodes                                         Cuts/
   Node  Left     Objective  IInf  Best Integer    Best Bound    ItCnt     Gap

*     0+    0                            0.0000  -1.31000e+13              --- 
*     0+    0                      -3.18000e+12  -1.31000e+13           311.95%
*     0+    0                      -3.30000e+12  -1.31000e+13           296.97%
*     0+    0                      -4.40000e+12  -1.31000e+13           197.73%
*     0+    0                      -5.50000e+12  -1.31000e+13           138.18%
      0     0  -1.30900e+13    25  -5.50000e+12  -1.30900e+13     1865  138.00%
*     0+    0                      -1.30900e+13  -1.30900e+13             0.00%
      0     0  -1.30900e+13   120  -1.30900e+13      Cuts: 48     2114    0.00%
*     0+    0                      -1.30900e+13  -1.30900e+13             0.00%
*     0+    0                      -1.30900e+13  -1.30900e+13             0.00%
      0     0  -1.30900e+13   181  -1.30900e+13      Cuts: 84     2728    0.00%

Repeating presolve.
Tried aggregator 3 times.
MIP Presolve eliminated 1457 rows and 3543 columns.
MIP Presolve added 2 rows and 0 columns.
MIP Presolve modified 137 coefficients.
Aggregator did 456 substitutions.
Reduced MIP has 1712 rows, 3698 columns, and 13040 nonzeros.
Reduced MIP has 3698 binaries, 0 generals, 0 SOSs, and 0 indicators.
Presolve time = 0.08 sec. (88.87 ticks)
Probing fixed 41 vars, tightened 0 bounds.
Probing time = 0.05 sec. (14.10 ticks)
Tried aggregator 2 times.
MIP Presolve eliminated 32 rows and 52 columns.
Aggregator did 9 substitutions.
Reduced MIP has 1671 rows, 3636 columns, and 12795 nonzeros.
Reduced MIP has 3636 binaries, 0 generals, 0 SOSs, and 0 indicators.
Presolve time = 0.03 sec. (20.49 ticks)
Probing time = 0.03 sec. (13.19 ticks)
Tried aggregator 1 time.
Detecting symmetries...
MIP Presolve eliminated 15 rows and 10 columns.
Reduced MIP has 1656 rows, 3626 columns, and 12748 nonzeros.
Reduced MIP has 3626 binaries, 0 generals, 0 SOSs, and 0 indicators.
Presolve time = 0.03 sec. (14.12 ticks)
Represolve time = 0.25 sec. (172.12 ticks)
Probing time = 0.03 sec. (4.95 ticks)
Clique table members: 8612.
MIP emphasis: balance optimality and feasibility.
MIP search method: dynamic search.
Parallel mode: opportunistic, using up to 40 threads.
Root relaxation solution time = 0.07 sec. (36.96 ticks)

        Nodes                                         Cuts/
   Node  Left     Objective  IInf  Best Integer    Best Bound    ItCnt     Gap

*     0+    0                      -1.30900e+13  -1.30900e+13             0.00%
      0     0  -1.30900e+13   128  -1.30900e+13  -1.30900e+13     3855    0.00%
      0     0  -1.30900e+13   114  -1.30900e+13      Cuts: 82     4129    0.00%
      0     0  -1.30900e+13   120  -1.30900e+13      Cuts: 82     4326    0.00%
      0     0  -1.30900e+13   148  -1.30900e+13      Cuts: 67     4487    0.00%
      0     2  -1.30900e+13   148  -1.30900e+13  -1.30900e+13     4487    0.00%
Elapsed time = 2.24 sec. (1388.59 ticks, tree = 0.02 MB, solutions = 8)
   1353    96  -1.30900e+13    75  -1.30900e+13  -1.30900e+13    26238    0.00%
*  1786   344      integral     0  -1.30900e+13  -1.30900e+13   105473    0.00%
   2261   329        cutoff        -1.30900e+13  -1.30900e+13    96241    0.00%
   4113   363  -1.30900e+13    31  -1.30900e+13  -1.30900e+13   164247    0.00%
   6570   395  -1.30900e+13    13  -1.30900e+13  -1.30900e+13   409461    0.00%
   9131   134        cutoff        -1.30900e+13  -1.30900e+13   537411    0.00%
  11049   392  -1.30900e+13    31  -1.30900e+13  -1.30900e+13   349754    0.00%
  12314   295        cutoff        -1.30900e+13  -1.30900e+13   490484    0.00%
  12813   120  -1.30900e+13    31  -1.30900e+13  -1.30900e+13   536052    0.00%

Performing restart 1

Repeating presolve.
Tried aggregator 2 times.
MIP Presolve eliminated 27 rows and 512 columns.
MIP Presolve added 6 rows and 0 columns.
MIP Presolve modified 1429 coefficients.
Aggregator did 53 substitutions.
Reduced MIP has 1582 rows, 3053 columns, and 10935 nonzeros.
Reduced MIP has 3053 binaries, 0 generals, 0 SOSs, and 0 indicators.
Presolve time = 0.03 sec. (29.50 ticks)
Tried aggregator 1 time.
MIP Presolve eliminated 1 rows and 5 columns.
Reduced MIP has 1581 rows, 3048 columns, and 10918 nonzeros.
Reduced MIP has 3048 binaries, 0 generals, 0 SOSs, and 0 indicators.
Presolve time = 0.02 sec. (13.27 ticks)
Represolve time = 0.10 sec. (70.30 ticks)
  12817     0  -1.30900e+13   141  -1.30900e+13      Cuts: 37   636199    0.00%
  12817     0  -1.30900e+13   123  -1.30900e+13      Cuts: 24   636253    0.00%
  12817     0  -1.30900e+13   130  -1.30900e+13      Cuts: 14   636311    0.00%
  12817     0  -1.30900e+13   175  -1.30900e+13      Cuts: 12   636347    0.00%
  12817     0  -1.30900e+13   186  -1.30900e+13   ZeroHalf: 6   636368    0.00%
  12817     0  -1.30900e+13   149  -1.30900e+13      Cuts: 11   636385    0.00%
  12817     0  -1.30900e+13   119  -1.30900e+13      Cuts: 15   636481    0.00%
  12817     0  -1.30900e+13   198  -1.30900e+13      Cuts: 19   636587    0.00%
  12817     0  -1.30900e+13   234  -1.30900e+13      Cuts: 24   636611    0.00%
  12817     0  -1.30900e+13   230  -1.30900e+13      Cuts: 25   636636    0.00%
  12817     0  -1.30900e+13   156  -1.30900e+13      Cuts: 16   636680    0.00%
  12817     0  -1.30900e+13   242  -1.30900e+13      Cuts: 32   636729    0.00%
  12817     0  -1.30900e+13    67  -1.30900e+13  ZeroHalf: 22   636783    0.00%
  12817     0  -1.30900e+13   226  -1.30900e+13      Cuts: 12   636830    0.00%
  12817     5        cutoff        -1.30900e+13  -1.30900e+13   639373    0.00%
  12991     2  -1.30900e+13   224  -1.30900e+13  -1.30900e+13   636913    0.00%
Elapsed time = 7.57 sec. (5213.57 ticks, tree = 0.02 MB, solutions = 19)

GUB cover cuts applied:  4
Clique cuts applied:  13
Cover cuts applied:  233
Flow cuts applied:  2
Mixed integer rounding cuts applied:  10
Zero-half cuts applied:  45
Lift and project cuts applied:  7
Gomory fractional cuts applied:  11

Root node processing (before b&c):
  Real time             =    1.85 sec. (1388.61 ticks)
Parallel b&c, 40 threads:
  Real time             =    5.77 sec. (4228.79 ticks)
  Sync time (average)   =    2.06 sec.
  Wait time (average)   =    0.08 sec.
                          ------------
Total (root+branch&cut) =    7.63 sec. (5617.41 ticks)

Solution pool: 19 solutions saved.

MIP - Integer optimal solution:  Objective = -1.3089999789e+13
Solution time =    7.71 sec.  Iterations = 643686  Nodes = 12997
Deterministic time = 5617.44 ticks  (728.72 ticks/sec)

CPLEX> Solution 'p20' written to file 'ee.sol'.
CPLEX> 